c Random generated cnf formula, satisfiable: false
p cnf 10 50
-2 -5 -8 0
10 -1 9 0
8 -1 -9 0
1 -2 4 0
-10 -7 -5 0
2 9 5 0
1 7 -3 0
-5 6 3 0
-3 6 2 0
-5 9 6 0
4 2 -6 0
5 1 8 0
3 -9 -8 0
5 -9 3 0
-5 -9 10 0
-5 -6 7 0
5 10 7 0
5 -3 2 0
7 8 5 0
3 10 1 0
-5 -4 -7 0
-7 -9 10 0
-1 8 2 0
-8 1 2 0
-9 -7 -5 0
-1 2 7 0
-5 3 6 0
-3 -8 6 0
3 5 4 0
10 -8 1 0
-4 -3 -6 0
8 -4 9 0
-1 -7 -2 0
-9 1 8 0
6 5 -10 0
7 -10 -9 0
-10 -3 6 0
-3 -1 6 0
1 -6 -4 0
8 3 -2 0
-5 -10 -1 0
-10 3 4 0
8 2 -6 0
-2 8 -10 0
-5 -6 -2 0
5 3 6 0
9 -7 -10 0
4 -6 -1 0
-1 -2 -8 0
9 6 -4 0
